0 222 
1 227 
2 235 
3 231 
4 230 
5 225 
6 223 
7 223 
8 221 
9 223 
10 221 
11 214 
12 213 
13 212 
14 206 
15 206 
16 205 
17 206 
18 209 
19 213 
20 215 
21 210 
22 210 
23 211 
24 205 
25 201 
26 198 
27 200 
28 199 
29 195 
30 194 
31 192 
32 190 
33 184 
34 187 
35 184 
36 182 
37 184 
38 185 
39 183 
40 180 
41 178 
42 181 
43 183 
44 185 
45 188 
46 183 
47 179 
48 178 
49 178 
50 177 
51 174 
52 175 
53 171 
54 165 
55 167 
56 167 
57 162 
58 159 
59 155 
60 151 
61 147 
62 145 
63 145 
64 146 
65 150 
66 148 
67 141 
68 140 
69 142 
70 146 
71 141 
72 136 
73 134 
74 134 
75 129 
76 131 
77 127 
78 122 
79 119 
80 119 
81 115 
82 118 
83 117 
84 112 
85 111 
86 110 
87 108 
88 106 
89 103 
90 103 
91 101 
92 103 
93 102 
94 97 
95 104 
96 102 
97 100 
98 96 
99 97 
100 92 
101 90 
102 86 
103 80 
104 76 
105 75 
106 72 
107 69 
108 72 
109 70 
110 72 
111 68 
112 67 
113 64 
114 64 
115 63 
116 62 
117 60 
118 60 
119 58 
120 59 
121 57 
122 54 
123 50 
124 49 
125 46 
126 46 
127 45 
128 47 
129 47 
130 43 
131 44 
132 42 
133 44 
134 40 
135 38 
136 40 
137 41 
138 42 
139 49 
140 47 
141 45 
142 42 
143 39 
144 40 
145 43 
146 38 
147 41 
148 35 
149 28 
150 26 
151 22 
152 21 
153 20 
154 16 
155 16 
156 12 
157 16 
158 12 
159 10 
160 10 
161 8 
162 9 
163 14 
164 16 
165 10 
166 6 
167 3 
168 4 
169 4 
170 4 
171 3 
172 1 
173 1 
174 1 
175 0 
176 0 

